191 300 18 18 45 38 11 15 47 19 14 15 19 20 33 28 31 32 47 21 44 19 43 37 27 20 27 13 15 22 25 40 15 35 50 11 23 10 16 21 21 22 27 33 35 11 10 15 36 49 28 31 18 22 18 35 32 35 38 38 49 14 29 15 40 28 16 14 30 25 25 44 39 44 26 23 46 28 30 33 29 48 13 37 19 23 23 44 48 12 31 49 18 11 15 48 31 22 13 10 39 31 44 27 24 21 43 21 40 22 44 20 20 50 47 31 22 21 24 22 25 47 20 33 50 25 33 30 39 36 31 29 16 26 47 31 40 41 44 31 12 38 41 24 37 37 46 49 50 21 22 24 20 32 49 19 50 31 40 40 17 22 19 23 38 17 46 27 48 40 48 50 29 38 24 17 26 21 17 27 34 30 41 44 13 42 13 12 22 43 45 29 14 